
Value of objective function: 2.58370757

Actual values of the variables:
pL1_div_from_law          2.58371
comp_pos0                0.371194
comp_neg0                       0
comp_pos1                0.365361
comp_neg1                       0
comp_pos2                 0.23072
comp_neg2                       0
comp_pos3                0.204707
comp_neg3                       0
comp_pos4                0.207897
comp_neg4                       0
comp_pos5               0.0399348
comp_neg5                       0
comp_pos6                 0.47017
comp_neg6                       0
comp_pos7                0.278377
comp_neg7                       0
comp_pos8                0.201561
comp_neg8                       0
comp_pos9               0.0701574
comp_neg9                       0
comp_pos10               0.128063
comp_neg10                      0
comp_pos11                      0
comp_neg11                      0
comp_pos12                      0
comp_neg12                      0
comp_pos13              0.0155662
comp_neg13                      0
z_c0_t0               1.32138e+10
p0_c0_t0              3.16742e+09
p1_c0_t0              1.06325e+08
p2_c0_t0              1.44639e+10
p3_c0_t0              3.81093e+08
diff0                  4.9049e+09
normdiff0                0.371194
z_c0_t1               1.47752e+10
p0_c0_t1              2.72479e+09
p1_c0_t1              1.18054e+08
p2_c0_t1              1.68565e+10
p3_c0_t1              4.74096e+08
diff1                 5.39828e+09
normdiff1                0.365361
z_c1_t0               1.65566e+10
p0_c1_t0              3.20249e+09
p1_c1_t0              1.36618e+08
p2_c1_t0              1.68704e+10
p3_c1_t0              1.66999e+08
diff2                 3.81993e+09
normdiff2                 0.23072
z_c1_t1               1.94959e+10
p0_c1_t1               3.1952e+09
p1_c1_t1              1.92432e+08
p2_c1_t1              1.99298e+10
p3_c1_t1              1.69358e+08
diff3                 3.99094e+09
normdiff3                0.204707
z_c2_t0               7.24754e+09
p0_c2_t0              1.09265e+09
p1_c2_t0              5.57491e+07
p2_c2_t0              7.45825e+09
p3_c2_t0              1.47624e+08
diff4                 1.50674e+09
normdiff4                0.207897
z_c2_t1               7.97123e+09
p0_c2_t1              8.78138e+08
p1_c2_t1              6.45183e+07
p2_c2_t1               7.2321e+09
p3_c2_t1              1.14802e+08
diff5                 3.18329e+08
normdiff5               0.0399348
z_c3_t0               1.22612e+10
p0_c3_t0              1.97687e+09
p1_c3_t0              9.53096e+07
p2_c3_t0              1.53292e+10
p3_c3_t0              6.24644e+08
diff6                 5.76484e+09
normdiff6                 0.47017
z_c3_t1               1.42798e+10
p0_c3_t1              2.21367e+09
p1_c3_t1               9.6642e+07
p2_c3_t1              1.54492e+10
p3_c3_t1              4.95448e+08
diff7                 3.97516e+09
normdiff7                0.278377
z_c4_t0               7.97197e+09
p0_c4_t0              8.72542e+08
p1_c4_t0              1.06652e+08
p2_c4_t0              8.48109e+09
p3_c4_t0              1.18515e+08
diff8                 1.60684e+09
normdiff8                0.201561
z_c4_t1                8.9819e+09
p0_c4_t1              8.93223e+08
p1_c4_t1              9.72162e+07
p2_c4_t1              8.54324e+09
p3_c4_t1              7.83663e+07
diff9                 6.30147e+08
normdiff9               0.0701574
z_c5_t0               1.00642e+10
p0_c5_t0               1.5387e+09
p1_c5_t0              8.90991e+07
p2_c5_t0              9.67488e+09
p3_c5_t0              5.03208e+07
diff10                1.28884e+09
normdiff10               0.128063
z_c5_t1                1.2016e+10
p0_c5_t1              1.12398e+09
p1_c5_t1              8.91374e+07
p2_c5_t1              1.06713e+10
p3_c5_t1              1.31558e+08
diff11                          0
normdiff11                      0
z_c6_t0               1.81204e+10
p0_c6_t0              2.80953e+09
p1_c6_t0              1.13688e+08
p2_c6_t0              1.50329e+10
p3_c6_t0              1.64267e+08
diff12                          0
normdiff12                      0
z_c6_t1               2.06345e+10
p0_c6_t1               2.9908e+09
p1_c6_t1              1.03172e+08
p2_c6_t1                1.775e+10
p3_c6_t1              1.11744e+08
diff13                3.21201e+08
normdiff13              0.0155662
